(define-fun inv2 ((x!0 Int) (x!1 Int) (x!2 Int) (x!3 Int) (x!4 Int)) Bool
  (let ((a!1 (not (<= (+ x!0 (* (- 1) x!1) (* 2 x!3) (* (- 3) x!4)) 2)))
        (a!2 (not (<= (+ x!3 (* (- 1) x!4)) 99)))
        (a!3 (not (<= (+ x!0 (* (- 1) x!4)) 0)))
        (a!4 (not (>= (+ (* 2 x!0) x!1 x!3 (* (- 3) x!4)) 4)))
        (a!5 (not (<= (+ x!0 (* (- 1) x!1) (* (- 1) x!3)) (- 1))))
        (a!6 (not (>= (+ x!0 (* (- 1) x!4)) 1)))
        (a!7 (not (>= (+ (* 2 x!0) x!1 (* (- 2) x!3)) 1))))
    (and a!1
         (not (= x!2 0))
         a!2
         (or (not (<= x!2 0)) (not (>= x!1 1)) a!3)
         (or (not (<= x!2 0)) a!3 a!4)
         (or (not (>= x!2 1)) a!5 a!6)
         (or (not (<= x!2 0)) a!7))))

